/* djp-gen1.dat */

param K := 2 ;
param N := 6 ;
param p := 1 ;
param q := 6 ;

param : E : cost :=
1 1 100000
1 2 1
1 3 100000
1 4 2
1 5 100000
1 6 100000
2 1 100000
2 2 100000
2 3 1
2 4 100000
2 5 2
2 6 100000
3 1 100000
3 2 100000
3 3 100000
3 4 100000
3 5 100000
3 6 1
4 1 100000
4 2 100000
4 3 1
4 4 100000
4 5 100000
4 6 100000
5 1 100000
5 2 100000
5 3 100000
5 4 100000
5 5 100000
5 6 1
6 1 100000
6 2 100000
6 3 100000
6 4 100000
6 5 100000
6 6 100000
;
end;
